db/data/2544579072647029643706737422308816499.z3.out
sat
-------------------
1149.393219496
